NAME: tsp30_19
COMMENT: 30-tsp problem (Padberg/Rinaldi)
TYPE: TSP
DIMENSION: 30
EDGE_WEIGHT_TYPE : EUC_2D
NODE_COORD_SECTION
1 19 25
2 15 18
3 19 10
4 9 33
5 27 25
6 36 33
7 6 34
8 25 22
9 35 5
10 5 16
11 21 39
12 12 7
13 34 9
14 4 6
15 23 25
16 30 16
17 6 30
18 12 36
19 8 8
20 4 15
21 20 34
22 22 12
23 7 37
24 34 31
25 3 36
26 4 18
27 16 25
28 10 18
29 37 5
30 1 25
